
******************************************************************************
This program contains Ipopt, a library for large-scale nonlinear optimization.
 Ipopt is released as open source code under the Eclipse Public License (EPL).
         For more information visit http://projects.coin-or.org/Ipopt

This version of Ipopt was compiled from source code available at
    https://github.com/IDAES/Ipopt as part of the Institute for the Design of
    Advanced Energy Systems Process Systems Engineering Framework (IDAES PSE
    Framework) Copyright (c) 2018-2019. See https://github.com/IDAES/idaes-pse.

This version of Ipopt was compiled using HSL, a collection of Fortran codes
    for large-scale scientific computation.  All technical papers, sales and
    publicity material resulting from use of the HSL codes within IPOPT must
    contain the following acknowledgement:
        HSL, a collection of Fortran codes for large-scale scientific
        computation. See http://www.hsl.rl.ac.uk.
******************************************************************************

This is Ipopt version 3.13.2, running with linear solver ma27.

Number of nonzeros in equality constraint Jacobian...:     1294
Number of nonzeros in inequality constraint Jacobian.:        0
Number of nonzeros in Lagrangian Hessian.............:     1643

Total number of variables............................:      496
                     variables with only lower bounds:      124
                variables with lower and upper bounds:      310
                     variables with only upper bounds:        0
Total number of equality constraints.................:      492
Total number of inequality constraints...............:        0
        inequality constraints with only lower bounds:        0
   inequality constraints with lower and upper bounds:        0
        inequality constraints with only upper bounds:        0

iter    objective    inf_pr   inf_du lg(mu)  ||d||  lg(rg) alpha_du alpha_pr  ls
   0  0.0000000e+00 2.87e+00 2.89e-15  -1.0 0.00e+00    -  0.00e+00 0.00e+00   0
   1  1.1260979e+00 1.74e+00 4.16e+06  -1.0 2.47e+06    -  1.15e-02 3.13e-02h  3
   2  2.6148106e+00 1.70e+00 5.88e+05  -1.0 1.99e+07    -  6.72e-03 5.57e-03h  4
   3  3.1719396e+00 1.70e+00 2.36e+07  -1.0 1.22e+07    -  5.63e-03 1.54e-03h  6
   4  3.2068654e+00 1.70e+00 2.36e+07  -1.0 1.97e+07  -4.0 4.88e-03 1.20e-04h  9
   5  3.9878861e+00 1.69e+00 2.50e+07  -1.0 1.76e+07    -  7.49e-03 2.27e-03h  5
   6  4.5824785e+00 1.69e+00 2.53e+07  -1.0 2.13e+07    -  6.46e-03 1.25e-03h  6
   7  4.7325620e+00 1.69e+00 2.53e+07  -1.0 2.41e+07    -  6.23e-03 2.70e-04h  8
   8  4.9080212e+00 1.69e+00 2.53e+07  -1.0 2.59e+07    -  6.63e-03 3.20e-04h  8
   9  1.5316493e+01 2.04e+00 2.93e+07  -1.0 2.72e+07    -  5.39e-03 8.56e-03h  3
iter    objective    inf_pr   inf_du lg(mu)  ||d||  lg(rg) alpha_du alpha_pr  ls
  10  1.9416831e+01 2.05e+00 2.92e+07  -1.0 4.40e+07    -  1.79e-02 1.54e-03h  5
  11  1.8564298e+02 9.13e+00 2.42e+07  -1.0 5.04e+07    -  1.67e-02 2.39e-02w  1
  12  6.6043001e+02 8.98e+00 3.63e+07  -1.0 1.10e+08    -  3.17e-04 1.59e-02w  1
  13  1.6939112e+02 8.96e+00 1.86e+08  -1.0 1.62e+09    -  5.57e-04 2.09e-03w  1
  14  2.0011449e+01 2.05e+00 2.92e+07  -1.0 4.06e+06  -4.5 1.67e-02 1.86e-04h  7
  15  2.5822821e+01 2.06e+00 2.91e+07  -1.0 5.22e+07    -  1.53e-02 1.60e-03h  5
  16  4.0024709e+01 2.10e+00 2.91e+07  -1.0 6.00e+07    -  1.89e-02 2.86e-03h  4
  17  4.4329455e+01 2.10e+00 2.90e+07  -1.0 7.62e+07    -  1.99e-02 6.25e-04h  6
  18  6.4433743e+01 2.12e+00 2.91e+07  -1.0 8.19e+07    -  2.38e-02 2.40e-03h  4
  19  1.1620311e+02 2.18e+00 2.96e+07  -1.0 1.01e+08    -  1.55e-02 3.99e-03h  3
iter    objective    inf_pr   inf_du lg(mu)  ||d||  lg(rg) alpha_du alpha_pr  ls
  20  1.5311561e+02 2.19e+00 2.97e+07  -1.0 1.42e+08    -  3.23e-02 1.73e-03h  4
  21  1.7529911e+02 2.19e+00 2.97e+07  -1.0 1.72e+08    -  1.24e-02 7.98e-04h  5
  22  2.8615216e+02 2.23e+00 3.01e+07  -1.0 1.88e+08    -  4.00e-02 3.11e-03h  3
  23  4.1051891e+02 2.25e+00 3.00e+07  -1.0 2.56e+08    -  1.09e-02 2.13e-03h  4
  24  4.8145745e+03 3.57e+00 1.25e+09  -1.0 3.15e+08    -  5.27e-02 2.53e-02w  1
  25  5.6274728e+03 3.56e+00 1.25e+09  -1.0 5.41e+08    -  2.64e-03 1.61e-03w  1
  26  1.0911630e+04 3.71e+00 8.50e+08  -1.0 4.56e+08    -  1.81e-03 1.16e-02w  1
  27  1.0513247e+03 2.40e+00 5.23e+07  -1.0 1.09e+09    -  5.27e-02 6.32e-03h  2
  28  1.0599078e+03 2.39e+00 4.70e+07  -1.0 8.50e+07  -4.1 1.02e-02 3.07e-04h  3
  29  3.6848196e+03 2.59e+00 9.29e+08  -1.0 5.33e+08    -  1.02e-02 8.44e-03h  3
iter    objective    inf_pr   inf_du lg(mu)  ||d||  lg(rg) alpha_du alpha_pr  ls
  30  8.6914440e+03 2.63e+00 1.38e+09  -1.0 1.03e+09    -  5.83e-03 4.20e-03h  3
  31  8.9968298e+03 2.63e+00 1.37e+09  -1.0 1.31e+09    -  2.15e-03 4.67e-04h  3
  32  1.0204762e+04 2.63e+00 1.39e+09  -1.0 7.68e+08  -4.5 8.14e-03 1.59e-03h  1
  33  1.0334325e+04 2.63e+00 1.37e+09  -1.0 3.54e+08  -4.1 6.77e-04 3.05e-04h  4
  34  1.0891402e+04 2.62e+00 7.13e+09  -1.0 7.24e+08  -3.7 3.82e-05 6.61e-04h  3
  35  1.0938753e+04 2.57e+00 1.69e+10  -1.0 3.29e+08  -3.3 4.50e-05 2.89e-04h  4
  36  1.0944091e+04 2.57e+00 1.73e+10  -1.0 2.14e+08  -2.8 5.76e-04 8.27e-05h  6
  37  1.0865145e+04 2.49e+00 2.43e+10  -1.0 4.00e+08  -3.3 4.74e-04 3.60e-04f  3
  38  1.0859814e+04 2.45e+00 2.65e+10  -1.0 1.22e+08  -2.9 5.19e-03 7.19e-04f  3
  39  1.0705173e+04 2.25e+00 1.88e+10  -1.0 1.03e+08  -3.4 9.69e-03 2.44e-03f  1
iter    objective    inf_pr   inf_du lg(mu)  ||d||  lg(rg) alpha_du alpha_pr  ls
  40  1.0705596e+04 2.25e+00 1.88e+10  -1.0 5.28e+07  -2.9 3.06e-02 5.71e-05h  1
  41r 1.0705596e+04 2.25e+00 1.00e+03   0.4 0.00e+00  -2.5 0.00e+00 2.93e-07R  2
  42r 1.0705596e+04 2.21e+00 9.95e+02   0.4 2.71e+03    -  7.00e-03 3.91e-03f  1
  43r 1.0705596e+04 2.15e+00 9.86e+02   0.4 6.45e+02    -  3.34e-02 9.30e-03f  1
  44r 1.0705594e+04 1.99e+00 9.48e+02   0.4 6.47e+02    -  2.52e-02 3.85e-02f  1
  45  1.0160153e+04 1.99e+00 5.92e+03  -1.0 6.31e+09    -  7.05e-03 9.82e-05f  1
  46  2.5501276e+03 5.51e+00 1.91e+06  -1.0 7.14e+09    -  1.06e-02 2.09e-03f  1
  47  9.1890467e+03 5.51e+00 1.88e+06  -1.0 1.23e+09    -  8.51e-03 6.58e-03h  3
  48  3.6438189e+03 5.51e+00 1.88e+06  -1.0 3.81e+09    -  9.08e-03 2.04e-03f  2
  49  4.5896594e+03 5.50e+00 1.87e+06  -1.0 1.07e+09    -  1.34e-02 1.13e-03h  6
iter    objective    inf_pr   inf_du lg(mu)  ||d||  lg(rg) alpha_du alpha_pr  ls
  50  5.1004888e+03 5.50e+00 1.87e+06  -1.0 2.13e+09    -  7.13e-03 3.10e-04h  7
  51r 5.1004888e+03 5.50e+00 1.00e+03   0.7 0.00e+00    -  0.00e+00 2.78e-07R 16
  52r 5.1004722e+03 4.11e+00 9.74e+02   0.7 8.39e+02    -  2.73e-02 7.13e-02f  1
  53  1.4373340e+04 4.10e+00 5.11e+04  -1.0 1.29e+09    -  9.91e-03 5.88e-03h  1
  54  1.2728872e+04 4.09e+00 1.22e+05  -1.0 1.49e+09    -  5.01e-05 1.83e-03f  1
  55  1.3076861e+04 4.09e+00 1.32e+05  -1.0 8.45e+08    -  2.06e-02 4.26e-04h  3
  56  1.3373688e+04 4.09e+00 1.41e+05  -1.0 9.79e+08    -  2.50e-02 3.02e-04h  5
  57  1.3704325e+04 4.09e+00 1.62e+05  -1.0 1.12e+09    -  3.87e-02 2.58e-04h  5
  58  1.4944403e+04 4.08e+00 1.08e+06  -1.0 1.26e+09    -  1.23e-01 9.05e-04h  3
  59  1.9125214e+04 4.08e+00 1.69e+07  -1.0 7.95e+09    -  2.02e-03 4.37e-04h  1
iter    objective    inf_pr   inf_du lg(mu)  ||d||  lg(rg) alpha_du alpha_pr  ls
  60  1.9172406e+04 4.08e+00 1.69e+07  -1.0 1.48e+09    -  4.37e-02 3.00e-05h  1
  61r 1.9172406e+04 4.08e+00 1.00e+03   0.6 0.00e+00    -  0.00e+00 2.51e-07R  2
  62r 1.9172399e+04 3.00e+00 9.80e+02   0.6 9.69e+02    -  2.02e-02 2.16e-02f  1
  63r 1.9172399e+04 3.00e+00 9.99e+02   0.5 0.00e+00    -  0.00e+00 1.88e-07R  2
  64r 1.9172399e+04 2.24e+00 9.97e+02   0.5 1.59e+03    -  2.70e-03 1.88e-03f  1
  65r 1.9172399e+04 2.24e+00 9.99e+02   0.3 0.00e+00    -  0.00e+00 4.54e-07R  5
  66r 1.9172397e+04 4.05e+00 9.89e+02   0.3 5.52e+02    -  1.51e-03 1.04e-02f  1
  67r 1.9172397e+04 4.06e+00 9.86e+02   0.3 5.17e+02    -  2.04e-02 2.12e-03f  1
  68r 1.9172397e+04 4.07e+00 9.81e+02   0.3 1.28e+03    -  2.05e-03 5.89e-03f  1
  69r 1.9172397e+04 4.09e+00 9.71e+02   0.3 1.38e+02    -  1.71e-01 1.00e-02f  1
iter    objective    inf_pr   inf_du lg(mu)  ||d||  lg(rg) alpha_du alpha_pr  ls
  70r 1.9172394e+04 4.18e+00 8.58e+02   0.3 1.13e+02    -  5.20e-02 1.16e-01f  1
  71r 1.9172392e+04 4.14e+00 8.21e+02   0.3 9.10e+01    -  6.32e-02 4.31e-02f  1
  72r 1.9172391e+04 4.11e+00 7.96e+02   0.3 1.00e+02    -  9.38e-02 2.98e-02f  1
  73r 1.9172391e+04 4.10e+00 7.92e+02   0.3 4.62e+00   2.0 6.50e-03 9.80e-03f  1
  74r 1.9172386e+04 4.26e+00 6.78e+02   0.3 5.76e+01    -  1.27e-01 1.45e-01f  1
  75r 1.9172386e+04 4.25e+00 7.95e+02   0.3 2.16e+00   3.3 3.71e-02 4.08e-03f  1
  76r 1.9172386e+04 3.55e+00 1.09e+03   0.3 4.41e+00   2.9 1.24e-01 1.65e-01f  1
  77r 1.9172386e+04 3.29e+00 1.50e+03   0.3 3.55e+00   3.3 7.10e-02 7.32e-02f  1
  78r 1.9172386e+04 2.62e+00 1.61e+03   0.3 3.22e+00   2.8 2.16e-01 2.07e-01f  1
  79r 1.9172386e+04 2.61e+00 1.55e+03   0.3 1.77e+00   3.2 4.84e-02 3.77e-03h  1
iter    objective    inf_pr   inf_du lg(mu)  ||d||  lg(rg) alpha_du alpha_pr  ls
  80r 1.9172386e+04 2.02e+00 3.25e+03   0.3 9.91e-01   3.7 2.02e-02 2.20e-01h  1
  81r 1.9172386e+04 2.14e+00 2.89e+03   0.3 1.27e+00   4.1 1.70e-01 7.34e-02H  1
  82r 1.9172386e+04 2.13e+00 2.47e+03   0.3 6.05e-01   4.5 2.87e-02 4.67e-03h  1
  83r 1.9172386e+04 1.83e+00 3.80e+03   0.3 6.23e-01   4.0 4.58e-02 1.84e-01h  1
  84  1.9249032e+04 1.83e+00 5.99e+04  -1.0 2.22e+08    -  1.89e-03 3.90e-04h  2
  85  1.9283361e+04 1.83e+00 7.28e+04  -1.0 2.12e+08    -  9.05e-04 1.84e-04h  5
  86  1.9341465e+04 1.83e+00 1.09e+05  -1.0 2.12e+08    -  1.30e-03 3.08e-04h  4
  87  1.9369597e+04 1.83e+00 1.17e+05  -1.0 2.11e+08    -  2.18e-02 1.48e-04h  5
  88  1.9428627e+04 1.83e+00 2.01e+05  -1.0 2.12e+08    -  1.27e-03 3.44e-04h  4
  89  1.9469524e+04 1.83e+00 2.40e+05  -1.0 2.12e+08    -  2.13e-02 2.36e-04h  5
iter    objective    inf_pr   inf_du lg(mu)  ||d||  lg(rg) alpha_du alpha_pr  ls
  90  1.9514904e+04 1.83e+00 3.69e+05  -1.0 2.13e+08    -  1.31e-03 3.08e-04h  6
  91  1.9567007e+04 1.83e+00 5.26e+05  -1.0 2.13e+08    -  3.26e-02 3.38e-04h  6
  92  1.9610619e+04 1.83e+00 9.66e+05  -1.0 2.14e+08    -  1.76e-03 3.80e-04h  6
  93  1.9664256e+04 1.83e+00 1.45e+06  -1.0 2.14e+08    -  3.89e-02 3.85e-04h  6
  94  2.1324271e+04 3.54e+00 1.05e+09  -1.0 2.13e+08    -  2.68e-03 1.25e-02w  1
  95  2.2726590e+04 3.66e+00 1.55e+11  -1.0 1.35e+08  -3.0 1.88e-05 6.47e-03w  1
  96  2.2726760e+04 3.66e+00 1.55e+11  -1.0 6.30e+07  -1.6 1.73e-03 1.07e-04w  1
  97  1.9700076e+04 1.83e+00 2.62e+06  -1.0 7.12e+07  -2.1 2.68e-03 3.90e-04h  5
  98  1.9757641e+04 1.83e+00 4.15e+06  -1.0 2.14e+08    -  5.56e-02 3.95e-04h  6
  99  1.9795103e+04 1.83e+00 9.01e+06  -1.0 2.13e+08    -  3.69e-03 4.02e-04h  6
iter    objective    inf_pr   inf_du lg(mu)  ||d||  lg(rg) alpha_du alpha_pr  ls
 100  1.9871904e+04 1.83e+00 1.68e+07  -1.0 2.13e+08    -  6.98e-02 4.07e-04h  6
 101  1.9943053e+04 1.83e+00 5.54e+07  -1.0 2.12e+08    -  4.32e-03 4.20e-04h  6
 102  1.9984872e+04 1.83e+00 6.80e+07  -1.0 2.12e+08    -  9.50e-03 2.13e-04h  7
 103  1.9989061e+04 1.83e+00 6.83e+07  -1.0 2.11e+08    -  2.52e-03 2.84e-05h 10
 104  1.9998361e+04 1.83e+00 6.94e+07  -1.0 2.11e+08    -  3.52e-03 5.54e-05h  9
 105  2.0040692e+04 1.82e+00 8.76e+07  -1.0 2.11e+08    -  8.87e-03 2.14e-04h  7
 106  2.0068117e+04 1.82e+00 9.28e+07  -1.0 2.11e+08    -  2.55e-02 1.05e-04h  6
 107  2.0479395e+04 3.52e+00 8.85e+08  -1.0 2.81e+08    -  8.67e-03 1.15e-03w  1
 108  2.0984872e+04 6.12e+00 1.17e+09  -1.0 2.82e+08    -  9.46e-03 8.42e-04w  1
 109  2.1365131e+04 6.11e+00 1.18e+09  -1.0 4.58e+08    -  9.33e-03 4.63e-04w  1
iter    objective    inf_pr   inf_du lg(mu)  ||d||  lg(rg) alpha_du alpha_pr  ls
 110r 2.0068117e+04 1.82e+00 1.00e+03   0.3 0.00e+00    -  0.00e+00 2.82e-07R 12
 111r 2.0068116e+04 2.40e+00 9.93e+02   0.3 2.46e+02    -  6.55e-03 9.71e-03f  1
 112r 2.0068116e+04 1.77e+00 9.92e+02   0.3 6.84e+02    -  1.66e-03 7.47e-04f  1
 113r 2.0068116e+04 2.33e+00 9.91e+02   0.3 1.15e+01   2.0 5.67e-02 1.47e-02f  1
 114r 2.0068114e+04 2.62e+00 9.82e+02   0.3 1.23e+02    -  7.11e-03 8.95e-03f  1
 115r 2.0068107e+04 2.62e+00 9.37e+02   0.3 2.62e+02    -  1.55e-02 4.81e-02f  1
 116r 2.0068107e+04 2.57e+00 8.38e+02   0.3 1.44e+00   2.4 2.38e-01 1.49e-01f  1
 117r 2.0068107e+04 2.45e+00 1.03e+03   0.3 1.12e+00   2.9 4.46e-02 3.42e-01f  1
 118r 2.0068107e+04 2.28e+00 8.56e+02   0.3 4.66e-01   3.3 3.76e-01 5.14e-01f  1
 119r 2.0068107e+04 2.27e+00 5.36e+02   0.3 5.68e-01   2.8 3.67e-01 5.28e-02f  1
iter    objective    inf_pr   inf_du lg(mu)  ||d||  lg(rg) alpha_du alpha_pr  ls
 120r 2.0068107e+04 2.16e+00 2.93e+02   0.3 1.59e-01   3.2 9.90e-01 7.28e-01h  1
 121r 2.0068107e+04 2.08e+00 2.88e+02   0.3 1.48e+00   2.7 1.25e-01 9.09e-02f  1
 122r 2.0068107e+04 1.95e+00 1.48e+02   0.3 9.78e-02   3.2 9.90e-01 9.55e-01f  1
 123r 2.0068107e+04 1.46e+00 7.18e+02   0.3 2.34e+00   2.7 2.40e-01 2.17e-01f  1
 124  2.0071913e+04 1.46e+00 1.17e+04  -1.0 6.75e+07    -  1.61e-02 9.67e-05h  1
 125  2.0063979e+04 1.46e+00 2.17e+04  -1.0 1.16e+08    -  6.63e-03 5.02e-05f  1
 126  1.9096860e+04 1.48e+00 2.77e+08  -1.0 1.28e+08    -  6.04e-03 5.64e-03f  1
 127  1.9002017e+04 1.48e+00 2.82e+08  -1.0 1.16e+08    -  1.56e-02 6.70e-04f  1
 128  1.9001921e+04 1.48e+00 2.82e+08  -1.0 2.03e+08    -  7.12e-03 4.44e-06f  2
 129  1.9010897e+04 1.48e+00 2.82e+08  -1.0 9.20e+08    -  1.29e-05 2.43e-05h  7
iter    objective    inf_pr   inf_du lg(mu)  ||d||  lg(rg) alpha_du alpha_pr  ls
 130  1.9020219e+04 1.48e+00 2.82e+08  -1.0 9.07e+08    -  1.31e-07 2.48e-05h  7
 131  1.6131624e+04 1.48e+00 1.36e+09  -1.0 5.97e+08    -  8.50e-09 3.07e-03f  1
 132  1.5999115e+04 1.48e+00 1.26e+09  -1.0 2.13e+08    -  9.22e-05 2.54e-04F  1
 133  1.5995716e+04 1.47e+00 1.26e+09  -1.0 2.92e+08    -  9.67e-03 4.00e-04f  1
 134  1.5994803e+04 1.47e+00 1.26e+09  -1.0 2.50e+08    -  1.65e-02 4.58e-06f  1
 135  1.5994264e+04 1.47e+00 1.26e+09  -1.0 6.24e+08    -  4.43e-03 6.30e-07f  1
 136  1.4798754e+04 1.47e+00 1.45e+09  -1.0 7.24e+08    -  7.95e-03 1.24e-03f  2
 137  1.4791937e+04 1.47e+00 1.51e+09  -1.0 1.83e+08  -2.6 3.23e-05 4.00e-05f  1
 138  1.4752569e+04 1.47e+00 2.15e+09  -1.0 1.72e+08  -3.1 1.18e-06 2.41e-04f  1
 139  1.4705981e+04 1.47e+00 2.60e+09  -1.0 2.08e+08  -3.6 5.15e-05 4.80e-04f  3
iter    objective    inf_pr   inf_du lg(mu)  ||d||  lg(rg) alpha_du alpha_pr  ls
 140  1.4670888e+04 1.47e+00 3.36e+09  -1.0 1.26e+08  -3.1 5.94e-04 4.45e-04f  3
 141  1.4639839e+04 1.47e+00 1.78e+10  -1.0 1.05e+08  -2.7 9.99e-04 4.41e-04f  2
 142  1.4664361e+04 1.47e+00 6.92e+09  -1.0 3.51e+08  -2.3 6.52e-04 6.52e-04s 13
 143r 1.4664361e+04 1.47e+00 9.99e+02   0.2 0.00e+00  -2.8 0.00e+00 0.00e+00R  1
 144r 1.4664361e+04 9.32e-01 9.96e+02   0.2 1.07e+03    -  5.65e-03 2.59e-03f  1
 145r 1.4664361e+04 9.32e-01 9.99e+02  -0.0 0.00e+00    -  0.00e+00 7.36e-08R  2
 146r 1.4664360e+04 9.36e-01 9.96e+02  -0.0 3.94e+02    -  1.14e-02 3.09e-03f  1
 147r 1.4664360e+04 2.67e+01 5.92e+03  -0.0 3.40e+02    -  7.27e-03 4.70e-03f  1
 148r 1.4664360e+04 2.66e+01 5.89e+03  -0.0 8.61e+02    -  1.13e-02 2.55e-03f  1
 149r 1.4664360e+04 2.65e+01 5.86e+03  -0.0 1.26e+02   0.0 1.08e-03 4.87e-03f  1
iter    objective    inf_pr   inf_du lg(mu)  ||d||  lg(rg) alpha_du alpha_pr  ls
 150r 1.4664357e+04 2.59e+01 5.68e+03  -0.0 2.28e+02    -  5.61e-02 2.14e-02f  1
 151r 1.4664357e+04 2.50e+01 5.40e+03  -0.0 1.02e+01  -0.5 1.68e-01 3.30e-02f  1
 152r 1.4664357e+04 2.07e+01 3.89e+03  -0.0 3.19e+01  -1.0 1.72e-01 1.36e-01f  1
 153r 1.4664357e+04 1.72e+01 2.83e+03  -0.0 1.23e+01  -0.5 3.50e-01 1.49e-01f  1
 154r 1.4664357e+04 1.72e+01 6.83e+02  -0.0 1.39e+02  -1.0 1.06e-02 2.42e-03f  1
 155r 1.4664357e+04 1.71e+01 2.03e+06  -0.0 2.65e+02  -0.6 1.95e-01 1.22e-03h  1
 156r 1.4664357e+04 1.67e+01 1.93e+06  -0.0 2.66e+02  -1.1 1.06e-02 2.72e-02h  1
 157r 1.4664356e+04 1.67e+01 1.90e+06  -0.0 1.79e+02    -  1.00e-02 1.27e-02h  1
 158r 1.4664344e+04 1.67e+01 1.72e+06  -0.0 1.33e+02    -  5.87e-02 8.52e-02h  1
 159r 1.4664307e+04 1.67e+01 1.19e+06  -0.0 1.25e+02    -  1.24e-01 2.56e-01h  1
iter    objective    inf_pr   inf_du lg(mu)  ||d||  lg(rg) alpha_du alpha_pr  ls
 160r 1.4664307e+04 1.67e+01 8.34e+05  -0.0 1.10e+01   3.0 1.95e-02 8.09e-02h  1
 161r 1.4664307e+04 1.66e+01 2.65e+06  -0.0 7.42e+00   3.4 5.46e-03 3.89e-02h  1
 162r 1.4664269e+04 1.66e+01 1.75e+06  -0.0 1.04e+02    -  3.00e-01 3.39e-01h  1
 163r 1.4664254e+04 1.66e+01 1.73e+06  -0.0 8.04e+01    -  7.84e-01 1.66e-01h  1
 164r 1.4664176e+04 1.66e+01 2.64e+05  -0.0 7.84e+01    -  2.52e-01 8.56e-01h  1
 165r 1.4664176e+04 1.66e+01 1.06e+06  -0.0 5.51e-01   3.8 2.41e-01 1.11e-01h  1
 166r 1.4664176e+04 1.65e+01 2.18e+05  -0.0 5.28e-01   3.4 6.59e-01 9.27e-01h  1
 167r 1.4664176e+04 1.65e+01 4.69e+05  -0.0 9.83e-02   2.9 9.90e-01 8.26e-01h  1
 168r 1.4664176e+04 1.65e+01 7.23e+02  -0.0 3.05e-02   3.3 9.90e-01 1.00e+00h  1
 169r 1.4664176e+04 1.66e+01 6.71e+02  -0.0 8.49e-02   2.8 9.91e-01 1.00e+00f  1
iter    objective    inf_pr   inf_du lg(mu)  ||d||  lg(rg) alpha_du alpha_pr  ls
 170r 1.4664176e+04 1.66e+01 8.42e+01  -0.0 4.69e-02   3.3 1.00e+00 1.00e+00f  1
 171r 1.4664176e+04 1.66e+01 8.25e+03  -0.7 3.70e-01   2.8 4.25e-01 7.48e-01f  1
 172r 1.4664176e+04 1.66e+01 5.69e+03  -0.7 1.10e-01   3.2 1.00e+00 2.51e-02f  1
 173r 1.4664176e+04 1.66e+01 8.43e+03  -0.7 6.72e-01   2.7 5.92e-01 2.10e-01f  1
 174r 1.4664176e+04 1.66e+01 5.45e+03  -0.7 1.32e-01   3.2 1.00e+00 6.63e-02f  1
 175r 1.4664176e+04 1.66e+01 6.64e+03  -0.7 1.83e+00   2.7 2.19e-01 5.46e-02f  1
 176r 1.4664167e+04 1.66e+01 1.34e+05  -0.7 3.52e+02    -  1.00e+00 4.72e-02f  1
 177r 1.4664167e+04 1.67e+01 6.19e+01  -0.7 4.46e-02   2.2 1.00e+00 1.00e+00f  1
 178r 1.4664121e+04 1.67e+01 1.17e+04  -0.7 3.45e+02    -  1.00e+00 2.53e-01f  1
 179r 1.4664099e+04 1.67e+01 9.77e+03  -0.7 2.78e+02    -  1.75e-01 1.58e-01f  1
iter    objective    inf_pr   inf_du lg(mu)  ||d||  lg(rg) alpha_du alpha_pr  ls
 180r 1.4664016e+04 1.67e+01 1.64e+03  -0.7 2.19e+02    -  1.00e+00 7.30e-01f  1
 181r 1.4663987e+04 1.67e+01 1.11e+00  -0.7 4.56e+01    -  1.00e+00 1.00e+00h  1
 182r 1.4664003e+04 1.67e+01 3.23e+01  -3.2 4.10e+01    -  7.23e-01 7.11e-01f  1
 183r 1.4663830e+04 1.67e+01 5.60e+03  -3.2 7.51e+03    -  5.36e-01 3.40e-02f  1
 184r 1.4663205e+04 1.67e+01 7.76e+02  -3.2 6.28e+03    -  7.00e-01 1.23e-01f  1
 185r 1.4663205e+04 1.67e+01 3.49e+02  -3.2 9.65e-03   1.7 5.30e-01 6.35e-01f  1
 186r 1.4663205e+04 1.67e+01 1.19e+02  -3.2 1.62e-02   1.2 6.80e-01 6.93e-01f  1
 187r 1.4663205e+04 1.67e+01 1.24e+03  -3.2 4.26e-02   0.8 9.31e-01 3.59e-01f  1
 188r 1.4663205e+04 1.67e+01 7.10e+02  -3.2 1.28e-01   0.3 3.34e-01 3.47e-01f  1
 189r 1.4663201e+04 1.67e+01 2.18e+04  -3.2 7.66e+03    -  1.00e+00 8.95e-04f  1
iter    objective    inf_pr   inf_du lg(mu)  ||d||  lg(rg) alpha_du alpha_pr  ls
 190r 1.4662996e+04 1.67e+01 1.62e+04  -3.2 5.50e+03    -  3.99e-01 4.57e-02f  1
 191r 1.4662996e+04 1.67e+01 1.27e+04  -3.2 3.81e-01  -0.2 7.71e-02 1.04e-01f  1
 192r 1.4662996e+04 1.67e+01 5.16e+03  -3.2 1.09e+00  -0.7 5.92e-01 6.18e-01f  1
 193r 1.4662996e+04 1.67e+01 5.69e+03  -3.2 4.24e-01  -0.2 1.00e+00 1.46e-01f  1
 194r 1.4662996e+04 1.67e+01 5.56e+03  -3.2 1.28e+00  -0.7 3.63e-01 4.75e-01f  1
 195r 1.4662996e+04 1.67e+01 2.47e-01  -3.2 4.81e-01  -0.3 1.00e+00 1.00e+00f  1
 196r 1.4662996e+04 1.67e+01 2.47e-01  -3.2 1.80e-01   0.1 1.00e+00 1.00e+00f  1
 197r 1.4662996e+04 1.67e+01 9.87e+02  -3.2 5.41e-01  -0.3 4.84e-02 6.17e-02f  1
 198r 1.4662996e+04 1.67e+01 2.46e-01  -3.2 2.03e-01   0.1 1.00e+00 1.00e+00f  1
 199r 1.4662996e+04 1.67e+01 8.88e+03  -3.2 6.08e-01  -0.4 4.85e-01 2.77e-01f  1
iter    objective    inf_pr   inf_du lg(mu)  ||d||  lg(rg) alpha_du alpha_pr  ls
 200r 1.4662996e+04 1.67e+01 3.19e+04  -3.2 4.12e-01   0.0 1.10e-01 1.13e-02f  1
 201r 1.4662996e+04 1.67e+01 3.81e+04  -3.2 6.83e-01  -0.4 2.71e-01 7.92e-02f  1
 202r 1.4662996e+04 1.67e+01 5.08e+03  -3.2 3.21e-02   0.9 8.59e-01 1.00e+00f  1
 203r 1.4662996e+04 1.67e+01 2.14e+03  -3.2 9.62e-02   0.4 1.00e+00 4.50e-01f  1
 204r 1.4662996e+04 1.67e+01 1.45e+03  -3.2 2.88e-01  -0.1 8.85e-01 8.15e-01f  1
 205r 1.4662996e+04 1.67e+01 5.03e-01  -3.2 1.08e-01   0.4 1.00e+00 1.00e+00f  1
 206r 1.4662996e+04 1.67e+01 9.29e+02  -3.2 4.06e-02   0.8 8.31e-01 1.00e+00f  1
 207r 1.4662996e+04 1.67e+01 1.56e+04  -3.2 1.22e-01   0.3 7.74e-01 2.70e-01f  1
 208r 1.4662996e+04 1.67e+01 1.68e+04  -3.2 3.65e-01  -0.2 6.16e-02 4.28e-02f  1
 209r 1.4662993e+04 1.67e+01 1.05e+04  -3.2 9.35e+03    -  1.00e+00 5.93e-04f  1
iter    objective    inf_pr   inf_du lg(mu)  ||d||  lg(rg) alpha_du alpha_pr  ls
 210r 1.4662857e+04 1.67e+01 6.55e+03  -3.2 5.25e+03    -  5.53e-01 3.10e-02f  1
 211r 1.4660855e+04 1.67e+01 6.06e+02  -3.2 5.08e+03    -  1.00e+00 4.77e-01f  1
 212r 1.4658690e+04 1.67e+01 3.48e+01  -3.2 2.66e+03    -  7.20e-01 1.00e+00f  1
 213r 1.4658678e+04 1.67e+01 8.34e-01  -3.2 4.17e+01    -  1.00e+00 1.00e+00h  1
 214r 1.4658680e+04 1.67e+01 5.03e-02  -3.2 5.67e+00    -  1.00e+00 1.00e+00h  1
 215r 1.4658683e+04 1.67e+01 2.40e+01  -4.8 6.72e+00    -  8.71e-01 9.52e-01f  1
 216r 1.4650025e+04 1.67e+01 2.70e+03  -4.8 3.40e+04    -  1.35e-01 2.94e-01f  1
 217r 1.4646001e+04 1.67e+01 4.86e+03  -4.8 2.41e+04    -  1.00e+00 1.95e-01f  1
 218r 1.4637532e+04 1.67e+01 1.49e+03  -4.8 1.94e+04    -  1.00e+00 5.00e-01f  1
 219r 1.4637442e+04 1.67e+01 1.74e+03  -4.8 9.75e+03    -  1.00e+00 1.08e-02f  1
iter    objective    inf_pr   inf_du lg(mu)  ||d||  lg(rg) alpha_du alpha_pr  ls
 220r 1.4637206e+04 1.67e+01 1.17e+03  -4.8 9.65e+03    -  3.72e-01 3.17e-02f  1
 221r 1.4629515e+04 1.67e+01 2.01e+03  -4.8 9.34e+03    -  1.12e-01 9.79e-01f  1
 222r 1.4629435e+04 1.67e+01 4.49e+02  -4.8 9.46e+02    -  8.19e-01 1.00e+00f  1
 223r 1.4629441e+04 1.67e+01 4.88e-03  -4.8 1.45e+02    -  1.00e+00 1.00e+00h  1
 224r 1.4629441e+04 1.67e+01 7.66e-06  -4.8 2.13e+00    -  1.00e+00 1.00e+00h  1
 225r 1.4629442e+04 1.67e+01 1.22e+00  -7.2 2.46e+00    -  9.05e-01 9.81e-01f  1
 226r 1.4629442e+04 1.67e+01 1.05e-03  -7.2 4.65e-03  -0.6 1.00e+00 1.00e+00f  1
 227r 1.4629442e+04 1.67e+01 1.05e-03  -7.2 1.40e-02  -1.1 1.00e+00 1.00e+00h  1
 228r 1.4629442e+04 1.67e+01 1.05e-03  -7.2 4.19e-02  -1.6 1.00e+00 1.00e+00h  1
 229r 1.4629442e+04 1.67e+01 1.05e-03  -7.2 1.26e-01  -2.1 1.00e+00 1.00e+00f  1
iter    objective    inf_pr   inf_du lg(mu)  ||d||  lg(rg) alpha_du alpha_pr  ls
 230r 1.4629442e+04 1.67e+01 1.05e-03  -7.2 3.77e-01  -2.6 1.00e+00 1.00e+00f  1
 231r 1.4629442e+04 1.67e+01 1.05e-03  -7.2 1.13e+00  -3.0 1.00e+00 1.00e+00f  1
 232r 1.4629443e+04 1.67e+01 1.05e-03  -7.2 3.39e+00  -3.5 1.00e+00 1.00e+00f  1
 233r 1.4629445e+04 1.67e+01 1.05e-03  -7.2 1.02e+01  -4.0 1.00e+00 1.00e+00f  1
 234r 1.4629450e+04 1.67e+01 1.05e-03  -7.2 3.06e+01  -4.5 1.00e+00 1.00e+00f  1
 235r 1.4629468e+04 1.67e+01 5.17e-03  -7.2 9.19e+01  -4.9 1.00e+00 1.00e+00f  1
 236r 1.4629520e+04 1.67e+01 6.32e+02  -7.2 2.77e+02  -5.4 1.52e-01 1.00e+00f  1
 237r 1.4629520e+04 1.67e+01 6.33e+02  -7.2 3.13e+03  -5.0 1.07e-07 2.86e-05f  1
 238r 1.4629578e+04 1.67e+01 5.55e-02  -7.2 3.14e+02  -5.5 1.00e+00 1.00e+00f  1
 239r 1.4629612e+04 1.67e+01 4.48e+02  -7.2 9.62e+02  -5.9 3.42e-03 1.96e-01f  1
iter    objective    inf_pr   inf_du lg(mu)  ||d||  lg(rg) alpha_du alpha_pr  ls
 240r 1.4629612e+04 1.67e+01 6.43e+03  -7.2 3.02e+03  -6.4 1.00e+00 6.07e-05f  1
 241r 1.4629625e+04 1.67e+01 9.40e+03  -7.2 1.01e+04  -6.9 4.24e-01 9.02e-03f  1
 242r 1.4629852e+04 1.67e+01 4.37e+03  -7.2 4.62e+04  -7.4 3.97e-08 4.42e-02f  1
 243r 1.4629852e+04 1.67e+01 4.37e+03  -7.2 2.31e+07  -7.0 0.00e+00 5.15e-11R  2
 244r 1.4629852e+04 1.67e+01 7.33e+04  -7.2 1.66e+05  -7.4 2.73e-02 1.52e-12f 24
 245r 1.4629852e+04 1.67e+01 7.47e+04  -7.2 1.45e+04  -7.0 1.66e-02 3.80e-13f 26
 246r 1.4629852e+04 1.67e+01 3.16e+04  -7.2 5.94e+01   0.8 5.73e-01 9.02e-14f 29
 247r 1.4629852e+04 1.67e+01 3.17e+04  -7.2 2.62e+00   0.4 5.43e-02 2.48e-13f 33
 248r 1.4629852e+04 1.67e+01 3.59e+05  -7.2 1.22e-01   0.8 1.00e+00 3.88e-05f 10
 249r 1.4629852e+04 1.67e+01 1.16e+12  -7.2 1.18e-01   0.3 8.29e-01 2.03e-02f  1
iter    objective    inf_pr   inf_du lg(mu)  ||d||  lg(rg) alpha_du alpha_pr  ls
 250r 1.4629852e+04 1.67e+01 2.95e+13  -7.2 1.36e+01  -0.2 8.53e-04 1.31e-03f  1
WARNING: Problem in step computation; switching to emergency mode.
 251r 1.4629852e+04 1.67e+01 2.95e+13  -7.2 1.36e+01  19.5 0.00e+00 0.00e+00R  1
WARNING: Problem in step computation; switching to emergency mode.
Restoration phase is called at almost feasible point,
  but acceptable point from iteration 224 could be restored.

Number of Iterations....: 251

                                   (scaled)                 (unscaled)
Objective...............:   1.4629441290872348e+04    1.4629441290872348e+04
Dual infeasibility......:   4.3649079220855359e-03    4.3649079220855359e-03
Constraint violation....:   1.6682710560483336e+01    1.6682710560483336e+01
Complementarity.........:   1.5072337573274215e-05    1.5072337573274215e-05
Overall NLP error.......:   1.6682710560483336e+01    1.6682710560483336e+01


Number of objective function evaluations             = 766
Number of objective gradient evaluations             = 116
Number of equality constraint evaluations            = 768
Number of inequality constraint evaluations          = 0
Number of equality constraint Jacobian evaluations   = 262
Number of inequality constraint Jacobian evaluations = 0
Number of Lagrangian Hessian evaluations             = 252
Total CPU secs in IPOPT (w/o function evaluations)   =      0.532
Total CPU secs in NLP function evaluations           =      9.314

EXIT: Converged to a point of local infeasibility. Problem may be infeasible.
